NAME = SAfile175,
TOURSIZE = 175,
LENGTH = 21413,
45,9,15,25,139,62,83,6,42,16,146,35,163,117,67,98,156,79,61,75,108,127,13,73,101,131,1,27,40,129,55,106,51,107,12,121,22,165,126,164,33,18,122,10,77,66,128,59,11,173,24,149,70,85,84,151,104,112,81,71,91,153,140,99,132,36,21,134,41,138,52,115,43,20,109,4,174,162,78,96,145,63,130,34,143,95,54,141,152,88,135,94,158,90,111,76,86,56,30,3,142,60,175,124,125,8,155,57,14,150,147,169,28,168,23,65,100,160,58,2,137,17,110,171,119,46,89,148,49,118,72,26,5,39,120,19,93,69,31,114,48,92,170,53,64,159,105,50,103,167,123,102,144,80,172,32,157,82,44,97,136,161,47,37,38,113,74,7,87,154,166,68,29,133,116